\ Model Capacitated Facility Location Problem with Energy Consumption Constraints
\ LP format - for model browsing. Use MPS format to capture full model detail.
Minimize
  66.3479971549 y[0] + 80.5102842631 y[1] + 189.5465129608 y[2]
   + 6.4464178446 x[0,0] + 38.223766722 x[0,1] + 99.612525886 x[0,2]
   + 52.9585230754 x[0,3] + 97.1107299236 x[1,0] + 86.0918922532 x[1,1]
   + 1.2469540921 x[1,2] + 72.1001097541 x[1,3] + 68.20286586580001 x[2,0]
   + 53.7433360078 x[2,1] + 26.7558364763 x[2,2] + 64.1320836781 x[2,3]
Subject To
 demand_0: x[0,0] + x[1,0] + x[2,0] >= 51.0016767383
 demand_1: x[0,1] + x[1,1] + x[2,1] >= 9.1818502762
 demand_2: x[0,2] + x[1,2] + x[2,2] >= 4.8069259049
 demand_3: x[0,3] + x[1,3] + x[2,3] >= 11.053948122
 capacity_0: - 62.7818595661 y[0] + x[0,0] + x[0,1] + x[0,2] + x[0,3] <= 0
 capacity_1: - 79.2287284999 y[1] + x[1,0] + x[1,1] + x[1,2] + x[1,3] <= 0
 capacity_2: - 42.2737806833 y[2] + x[2,0] + x[2,1] + x[2,2] + x[2,3] <= 0
 energy_limit_0: 11.2440621422 x[0,0] + 11.2440621422 x[0,1]
   + 11.2440621422 x[0,2] + 11.2440621422 x[0,3] <= 95.38621115940001
 energy_limit_1: 43.5330485418 x[1,0] + 43.5330485418 x[1,1]
   + 43.5330485418 x[1,2] + 43.5330485418 x[1,3] <= 87.5977087438
 energy_limit_2: 45.4269982623 x[2,0] + 45.4269982623 x[2,1]
   + 45.4269982623 x[2,2] + 45.4269982623 x[2,3] <= 26.41256617
 total_energy_budget: 11.2440621422 x[0,0] + 11.2440621422 x[0,1]
   + 11.2440621422 x[0,2] + 11.2440621422 x[0,3] + 43.5330485418 x[1,0]
   + 43.5330485418 x[1,1] + 43.5330485418 x[1,2] + 43.5330485418 x[1,3]
   + 45.4269982623 x[2,0] + 45.4269982623 x[2,1] + 45.4269982623 x[2,2]
   + 45.4269982623 x[2,3] <= 50.1085526937
Bounds
Binaries
 y[0] y[1] y[2]
End
